(set-logic QF_S)
(declare-fun var0 () String)
(assert (RegexIn var0 (RegexConcat (RegexUnion (RegexUnion (RegexStar (RegexStar (RegexPlus (RegexPlus (RegexUnion (RegexUnion (RegexUnion (RegexStar (RegexUnion (RegexUnion (Str2Reg "000") (Str2Reg "1")) (RegexUnion (Str2Reg "2") (Str2Reg "3")))) (RegexStar (RegexPlus (RegexPlus (Str2Reg "44"))))) (RegexUnion (RegexPlus (RegexStar (RegexStar (Str2Reg "55")))) (RegexPlus (RegexUnion (RegexUnion (Str2Reg "6") (Str2Reg "77")) (RegexUnion (Str2Reg "888") (Str2Reg "999")))))) (RegexUnion (RegexUnion (RegexStar (RegexPlus (RegexPlus (Str2Reg "aaa")))) (RegexStar (RegexStar (RegexPlus (Str2Reg "bbb"))))) (RegexUnion (RegexStar (RegexUnion (RegexPlus (Str2Reg "ccc")) (RegexPlus (Str2Reg "ddd")))) (RegexStar (RegexPlus (RegexStar (Str2Reg "e"))))))))))) (RegexStar (RegexPlus (RegexUnion (RegexPlus (RegexPlus (RegexUnion (RegexPlus (RegexStar (RegexPlus (RegexStar (Str2Reg "fff"))))) (RegexPlus (RegexPlus (RegexUnion (RegexUnion (Str2Reg "ggg") (Str2Reg "h")) (RegexUnion (Str2Reg "ii") (Str2Reg "jjj")))))))) (RegexPlus (RegexUnion (RegexUnion (RegexUnion (RegexPlus (RegexUnion (RegexStar (Str2Reg "kkk")) (RegexStar (Str2Reg "lll")))) (RegexPlus (RegexUnion (RegexPlus (Str2Reg "mm")) (RegexPlus (Str2Reg "n"))))) (RegexUnion (RegexPlus (RegexUnion (RegexUnion (Str2Reg "o") (Str2Reg "ppp")) (RegexUnion (Str2Reg "qqq") (Str2Reg "r")))) (RegexPlus (RegexPlus (RegexPlus (Str2Reg "s")))))) (RegexUnion (RegexUnion (RegexPlus (RegexStar (RegexUnion (Str2Reg "tt") (Str2Reg "u")))) (RegexPlus (RegexStar (RegexPlus (Str2Reg "vv"))))) (RegexUnion (RegexStar (RegexUnion (RegexStar (Str2Reg "www")) (RegexStar (Str2Reg "xxx")))) (RegexStar (RegexPlus (RegexUnion (Str2Reg "yyy") (Str2Reg "zz")))))))))))) (RegexUnion (RegexStar (RegexPlus (RegexUnion (RegexPlus (RegexPlus (RegexUnion (RegexPlus (RegexStar (RegexPlus (RegexUnion (Str2Reg "AAA") (Str2Reg "B"))))) (RegexPlus (RegexStar (RegexUnion (RegexPlus (Str2Reg "CCC")) (RegexPlus (Str2Reg "DDD")))))))) (RegexPlus (RegexStar (RegexUnion (RegexStar (RegexUnion (RegexPlus (RegexUnion (Str2Reg "EE") (Str2Reg "FFF"))) (RegexPlus (RegexUnion (Str2Reg "G") (Str2Reg "HH"))))) (RegexStar (RegexUnion (RegexStar (RegexPlus (Str2Reg "III"))) (RegexStar (RegexUnion (Str2Reg "JJJ") (Str2Reg "KKK"))))))))))) (RegexStar (RegexUnion (RegexUnion (RegexPlus (RegexStar (RegexPlus (RegexUnion (RegexPlus (RegexUnion (RegexUnion (Str2Reg "LL") (Str2Reg "M")) (RegexUnion (Str2Reg "NNN") (Str2Reg "O")))) (RegexPlus (RegexStar (RegexUnion (Str2Reg "PPP") (Str2Reg "QQQ")))))))) (RegexPlus (RegexStar (RegexUnion (RegexPlus (RegexStar (RegexUnion (RegexUnion (Str2Reg "RRR") (Str2Reg "SSS")) (RegexUnion (Str2Reg "TT") (Str2Reg "UU"))))) (RegexPlus (RegexPlus (RegexPlus (RegexPlus (Str2Reg "VV"))))))))) (RegexUnion (RegexStar (RegexPlus (RegexStar (RegexPlus (RegexPlus (RegexPlus (RegexUnion (Str2Reg "W") (Str2Reg "XX")))))))) (RegexStar (RegexPlus (RegexPlus (RegexPlus (RegexUnion (RegexStar (RegexPlus (Str2Reg "Y"))) (RegexStar (RegexStar (Str2Reg "Z"))))))))))))) (RegexStar (RegexUnion (RegexStar (RegexStar (RegexUnion (RegexPlus (RegexStar (RegexStar (RegexPlus (RegexUnion (RegexPlus (RegexPlus (Str2Reg "!!"))) (RegexPlus (RegexPlus (Str2Reg "\"")))))))) (RegexPlus (RegexStar (RegexStar (RegexStar (RegexPlus (RegexPlus (RegexStar (Str2Reg "###"))))))))))) (RegexStar (RegexStar (RegexPlus (RegexUnion (RegexStar (RegexPlus (RegexUnion (RegexUnion (RegexUnion (RegexPlus (Str2Reg "$$$")) (RegexPlus (Str2Reg "%"))) (RegexUnion (RegexStar (Str2Reg "&")) (RegexStar (Str2Reg "'")))) (RegexUnion (RegexStar (RegexUnion (Str2Reg "(((") (Str2Reg ")"))) (RegexStar (RegexStar (Str2Reg "***"))))))) (RegexStar (RegexStar (RegexUnion (RegexStar (RegexUnion (RegexStar (Str2Reg "+")) (RegexStar (Str2Reg ",")))) (RegexStar (RegexPlus (RegexStar (Str2Reg "-"))))))))))))))))
(assert (<= 15 (Length var0)))
(check-sat)